MATILDA_Graphs/g0003.col
c File: data_files/evolved_graphs/g0003.col
c
c Auto generated graph
c
p edge 100 2354
e 1 4
e 1 8
e 1 12
e 1 14
e 1 19
e 1 20
e 1 27
e 1 33
e 1 34
e 1 35
e 1 36
e 1 37
e 1 38
e 1 41
e 1 44
e 1 47
e 1 50
e 1 52
e 1 53
e 1 54
e 1 55
e 1 56
e 1 57
e 1 58
e 1 59
e 1 60
e 1 61
e 1 64
e 1 65
e 1 66
e 1 67
e 1 68
e 1 69
e 1 70
e 1 71
e 1 72
e 1 73
e 1 75
e 1 76
e 1 77
e 1 78
e 1 79
e 1 81
e 1 82
e 1 83
e 1 84
e 1 86
e 1 89
e 1 90
e 1 91
e 1 92
e 1 93
e 1 94
e 1 95
e 1 96
e 1 97
e 1 98
e 1 99
e 1 100
e 2 3
e 2 5
e 2 11
e 2 12
e 2 14
e 2 20
e 2 22
e 2 23
e 2 25
e 2 26
e 2 34
e 2 44
e 2 46
e 2 49
e 2 52
e 2 53
e 2 54
e 2 55
e 2 56
e 2 57
e 2 58
e 2 59
e 2 60
e 2 61
e 2 62
e 2 63
e 2 64
e 2 66
e 2 67
e 2 68
e 2 69
e 2 70
e 2 72
e 2 73
e 2 74
e 2 75
e 2 76
e 2 77
e 2 78
e 2 79
e 2 80
e 2 81
e 2 82
e 2 83
e 2 84
e 2 85
e 2 86
e 2 87
e 2 88
e 2 89
e 2 90
e 2 91
e 2 92
e 2 94
e 2 95
e 2 96
e 2 97
e 2 98
e 2 99
e 2 100
e 3 5
e 3 8
e 3 10
e 3 11
e 3 12
e 3 16
e 3 18
e 3 22
e 3 23
e 3 25
e 3 26
e 3 30
e 3 37
e 3 38
e 3 42
e 3 44
e 3 46
e 3 48
e 3 51
e 3 52
e 3 53
e 3 54
e 3 56
e 3 57
e 3 58
e 3 62
e 3 63
e 3 64
e 3 65
e 3 66
e 3 67
e 3 68
e 3 69
e 3 71
e 3 73
e 3 74
e 3 76
e 3 77
e 3 79
e 3 80
e 3 81
e 3 82
e 3 83
e 3 84
e 3 85
e 3 86
e 3 87
e 3 88
e 3 89
e 3 90
e 3 91
e 3 92
e 3 93
e 3 94
e 3 95
e 3 96
e 3 97
e 3 98
e 3 99
e 3 100
e 4 13
e 4 15
e 4 17
e 4 18
e 4 22
e 4 23
e 4 24
e 4 25
e 4 27
e 4 28
e 4 29
e 4 30
e 4 32
e 4 33
e 4 34
e 4 36
e 4 39
e 4 46
e 4 51
e 4 52
e 4 53
e 4 54
e 4 56
e 4 57
e 4 58
e 4 59
e 4 60
e 4 62
e 4 63
e 4 64
e 4 65
e 4 66
e 4 67
e 4 68
e 4 69
e 4 71
e 4 72
e 4 73
e 4 74
e 4 75
e 4 76
e 4 77
e 4 78
e 4 79
e 4 80
e 4 81
e 4 84
e 4 85
e 4 86
e 4 88
e 4 89
e 4 90
e 4 91
e 4 92
e 4 94
e 4 96
e 4 97
e 4 98
e 4 99
e 4 100
e 5 12
e 5 13
e 5 14
e 5 15
e 5 23
e 5 24
e 5 26
e 5 27
e 5 28
e 5 29
e 5 36
e 5 37
e 5 38
e 5 42
e 5 45
e 5 46
e 5 49
e 5 50
e 5 52
e 5 54
e 5 55
e 5 56
e 5 57
e 5 59
e 5 61
e 5 62
e 5 63
e 5 64
e 5 66
e 5 67
e 5 68
e 5 72
e 5 73
e 5 74
e 5 75
e 5 76
e 5 77
e 5 78
e 5 79
e 5 81
e 5 82
e 5 83
e 5 84
e 5 85
e 5 86
e 5 87
e 5 88
e 5 89
e 5 90
e 5 91
e 5 92
e 5 93
e 5 94
e 5 95
e 5 97
e 5 98
e 5 99
e 5 100
e 6 7
e 6 8
e 6 10
e 6 11
e 6 13
e 6 15
e 6 16
e 6 22
e 6 32
e 6 33
e 6 34
e 6 37
e 6 44
e 6 46
e 6 50
e 6 52
e 6 53
e 6 54
e 6 55
e 6 56
e 6 57
e 6 58
e 6 59
e 6 60
e 6 61
e 6 62
e 6 63
e 6 64
e 6 65
e 6 66
e 6 67
e 6 68
e 6 69
e 6 70
e 6 71
e 6 72
e 6 73
e 6 75
e 6 76
e 6 77
e 6 78
e 6 79
e 6 80
e 6 81
e 6 82
e 6 84
e 6 85
e 6 86
e 6 87
e 6 90
e 6 91
e 6 92
e 6 93
e 6 94
e 6 95
e 6 96
e 6 98
e 6 99
e 7 13
e 7 21
e 7 22
e 7 24
e 7 30
e 7 33
e 7 37
e 7 41
e 7 42
e 7 43
e 7 45
e 7 51
e 7 52
e 7 53
e 7 54
e 7 55
e 7 56
e 7 58
e 7 59
e 7 61
e 7 62
e 7 63
e 7 64
e 7 68
e 7 69
e 7 70
e 7 72
e 7 73
e 7 74
e 7 75
e 7 76
e 7 77
e 7 78
e 7 79
e 7 80
e 7 81
e 7 82
e 7 83
e 7 84
e 7 85
e 7 87
e 7 89
e 7 90
e 7 91
e 7 92
e 7 93
e 7 94
e 7 96
e 7 98
e 7 100
e 8 9
e 8 13
e 8 17
e 8 18
e 8 19
e 8 28
e 8 31
e 8 32
e 8 34
e 8 35
e 8 38
e 8 39
e 8 40
e 8 41
e 8 43
e 8 44
e 8 48
e 8 49
e 8 50
e 8 52
e 8 53
e 8 54
e 8 55
e 8 56
e 8 57
e 8 58
e 8 59
e 8 60
e 8 61
e 8 62
e 8 63
e 8 64
e 8 65
e 8 66
e 8 67
e 8 68
e 8 69
e 8 70
e 8 71
e 8 72
e 8 74
e 8 75
e 8 77
e 8 79
e 8 80
e 8 81
e 8 82
e 8 83
e 8 84
e 8 85
e 8 87
e 8 88
e 8 89
e 8 90
e 8 91
e 8 92
e 8 94
e 8 95
e 8 96
e 8 97
e 8 98
e 8 99
e 8 100
e 9 10
e 9 11
e 9 16
e 9 17
e 9 22
e 9 23
e 9 31
e 9 38
e 9 39
e 9 40
e 9 43
e 9 47
e 9 52
e 9 53
e 9 54
e 9 55
e 9 56
e 9 57
e 9 58
e 9 59
e 9 60
e 9 61
e 9 63
e 9 64
e 9 65
e 9 66
e 9 67
e 9 68
e 9 69
e 9 71
e 9 72
e 9 73
e 9 74
e 9 75
e 9 77
e 9 78
e 9 79
e 9 80
e 9 81
e 9 82
e 9 83
e 9 85
e 9 86
e 9 87
e 9 88
e 9 89
e 9 90
e 9 91
e 9 92
e 9 97
e 9 98
e 9 99
e 9 100
e 10 13
e 10 14
e 10 21
e 10 24
e 10 26
e 10 29
e 10 33
e 10 36
e 10 37
e 10 41
e 10 43
e 10 46
e 10 49
e 10 52
e 10 53
e 10 54
e 10 55
e 10 56
e 10 57
e 10 61
e 10 62
e 10 63
e 10 64
e 10 65
e 10 66
e 10 67
e 10 69
e 10 70
e 10 72
e 10 73
e 10 74
e 10 76
e 10 77
e 10 78
e 10 79
e 10 80
e 10 81
e 10 82
e 10 83
e 10 84
e 10 85
e 10 87
e 10 88
e 10 89
e 10 90
e 10 91
e 10 93
e 10 94
e 10 95
e 10 96
e 10 97
e 10 98
e 10 99
e 10 100
e 11 12
e 11 14
e 11 16
e 11 17
e 11 21
e 11 22
e 11 24
e 11 25
e 11 26
e 11 30
e 11 31
e 11 35
e 11 37
e 11 38
e 11 42
e 11 46
e 11 50
e 11 51
e 11 52
e 11 53
e 11 54
e 11 55
e 11 56
e 11 58
e 11 60
e 11 61
e 11 62
e 11 63
e 11 64
e 11 65
e 11 66
e 11 68
e 11 69
e 11 71
e 11 72
e 11 74
e 11 75
e 11 77
e 11 78
e 11 79
e 11 80
e 11 81
e 11 82
e 11 83
e 11 84
e 11 86
e 11 88
e 11 89
e 11 90
e 11 92
e 11 93
e 11 95
e 11 96
e 11 98
e 11 99
e 11 100
e 12 16
e 12 17
e 12 25
e 12 26
e 12 33
e 12 34
e 12 35
e 12 38
e 12 42
e 12 51
e 12 52
e 12 54
e 12 55
e 12 56
e 12 58
e 12 60
e 12 61
e 12 62
e 12 63
e 12 64
e 12 65
e 12 67
e 12 69
e 12 70
e 12 73
e 12 74
e 12 75
e 12 77
e 12 79
e 12 80
e 12 81
e 12 83
e 12 86
e 12 88
e 12 89
e 12 90
e 12 91
e 12 92
e 12 93
e 12 94
e 12 95
e 12 96
e 12 99
e 13 20
e 13 23
e 13 25
e 13 28
e 13 31
e 13 32
e 13 33
e 13 41
e 13 42
e 13 44
e 13 46
e 13 47
e 13 51
e 13 52
e 13 54
e 13 55
e 13 56
e 13 57
e 13 58
e 13 59
e 13 60
e 13 63
e 13 65
e 13 66
e 13 67
e 13 69
e 13 70
e 13 71
e 13 72
e 13 73
e 13 74
e 13 75
e 13 76
e 13 77
e 13 79
e 13 82
e 13 83
e 13 84
e 13 85
e 13 86
e 13 87
e 13 88
e 13 90
e 13 91
e 13 93
e 13 94
e 13 95
e 13 97
e 13 98
e 13 99
e 13 100
e 14 16
e 14 18
e 14 21
e 14 23
e 14 24
e 14 25
e 14 26
e 14 37
e 14 38
e 14 39
e 14 43
e 14 46
e 14 49
e 14 51
e 14 52
e 14 53
e 14 54
e 14 55
e 14 57
e 14 58
e 14 59
e 14 60
e 14 61
e 14 62
e 14 63
e 14 64
e 14 66
e 14 68
e 14 69
e 14 71
e 14 72
e 14 73
e 14 74
e 14 76
e 14 77
e 14 78
e 14 79
e 14 80
e 14 81
e 14 82
e 14 83
e 14 85
e 14 86
e 14 87
e 14 88
e 14 89
e 14 90
e 14 91
e 14 92
e 14 94
e 14 95
e 14 96
e 14 97
e 14 99
e 14 100
e 15 16
e 15 22
e 15 23
e 15 26
e 15 27
e 15 29
e 15 33
e 15 35
e 15 36
e 15 37
e 15 41
e 15 43
e 15 44
e 15 47
e 15 48
e 15 49
e 15 53
e 15 54
e 15 55
e 15 56
e 15 57
e 15 58
e 15 59
e 15 60
e 15 61
e 15 62
e 15 63
e 15 64
e 15 65
e 15 66
e 15 67
e 15 68
e 15 69
e 15 70
e 15 71
e 15 72
e 15 73
e 15 74
e 15 75
e 15 76
e 15 77
e 15 79
e 15 80
e 15 81
e 15 82
e 15 83
e 15 85
e 15 87
e 15 88
e 15 90
e 15 91
e 15 92
e 15 93
e 15 94
e 15 95
e 15 96
e 15 97
e 15 98
e 15 99
e 15 100
e 16 17
e 16 18
e 16 20
e 16 21
e 16 22
e 16 25
e 16 26
e 16 28
e 16 29
e 16 31
e 16 34
e 16 35
e 16 36
e 16 41
e 16 46
e 16 50
e 16 52
e 16 53
e 16 55
e 16 56
e 16 58
e 16 59
e 16 60
e 16 61
e 16 62
e 16 63
e 16 64
e 16 65
e 16 66
e 16 67
e 16 69
e 16 70
e 16 71
e 16 72
e 16 73
e 16 74
e 16 75
e 16 76
e 16 77
e 16 78
e 16 79
e 16 80
e 16 81
e 16 82
e 16 83
e 16 86
e 16 88
e 16 89
e 16 90
e 16 91
e 16 92
e 16 95
e 16 96
e 16 97
e 16 98
e 16 99
e 16 100
e 17 18
e 17 20
e 17 21
e 17 25
e 17 28
e 17 29
e 17 38
e 17 41
e 17 42
e 17 45
e 17 46
e 17 52
e 17 53
e 17 54
e 17 55
e 17 56
e 17 57
e 17 58
e 17 60
e 17 61
e 17 62
e 17 63
e 17 64
e 17 65
e 17 66
e 17 67
e 17 68
e 17 69
e 17 71
e 17 72
e 17 73
e 17 74
e 17 75
e 17 76
e 17 77
e 17 78
e 17 79
e 17 80
e 17 83
e 17 84
e 17 86
e 17 88
e 17 89
e 17 90
e 17 91
e 17 92
e 17 93
e 17 94
e 17 95
e 17 96
e 17 97
e 17 98
e 17 99
e 17 100
e 18 20
e 18 24
e 18 32
e 18 34
e 18 38
e 18 39
e 18 41
e 18 42
e 18 46
e 18 47
e 18 52
e 18 53
e 18 54
e 18 55
e 18 56
e 18 57
e 18 58
e 18 59
e 18 61
e 18 62
e 18 63
e 18 64
e 18 65
e 18 66
e 18 67
e 18 69
e 18 70
e 18 71
e 18 72
e 18 74
e 18 76
e 18 77
e 18 78
e 18 79
e 18 80
e 18 82
e 18 83
e 18 84
e 18 85
e 18 86
e 18 87
e 18 88
e 18 90
e 18 91
e 18 92
e 18 93
e 18 94
e 18 95
e 18 96
e 18 98
e 18 100
e 19 22
e 19 23
e 19 25
e 19 27
e 19 28
e 19 34
e 19 35
e 19 37
e 19 38
e 19 40
e 19 48
e 19 49
e 19 53
e 19 54
e 19 55
e 19 56
e 19 57
e 19 58
e 19 59
e 19 60
e 19 62
e 19 64
e 19 65
e 19 67
e 19 68
e 19 69
e 19 70
e 19 73
e 19 74
e 19 75
e 19 76
e 19 77
e 19 78
e 19 79
e 19 81
e 19 82
e 19 83
e 19 84
e 19 85
e 19 86
e 19 87
e 19 88
e 19 89
e 19 90
e 19 91
e 19 92
e 19 93
e 19 94
e 19 95
e 19 96
e 19 97
e 19 98
e 19 100
e 20 21
e 20 22
e 20 28
e 20 29
e 20 30
e 20 33
e 20 34
e 20 44
e 20 50
e 20 52
e 20 53
e 20 54
e 20 56
e 20 57
e 20 58
e 20 59
e 20 60
e 20 61
e 20 62
e 20 63
e 20 64
e 20 66
e 20 68
e 20 69
e 20 70
e 20 71
e 20 72
e 20 74
e 20 75
e 20 76
e 20 77
e 20 78
e 20 79
e 20 80
e 20 81
e 20 82
e 20 83
e 20 84
e 20 85
e 20 86
e 20 87
e 20 89
e 20 92
e 20 93
e 20 94
e 20 96
e 20 97
e 20 98
e 20 99
e 20 100
e 21 23
e 21 28
e 21 32
e 21 36
e 21 37
e 21 42
e 21 44
e 21 45
e 21 47
e 21 50
e 21 51
e 21 53
e 21 54
e 21 55
e 21 56
e 21 59
e 21 61
e 21 62
e 21 63
e 21 64
e 21 65
e 21 66
e 21 67
e 21 68
e 21 69
e 21 70
e 21 71
e 21 73
e 21 76
e 21 79
e 21 80
e 21 81
e 21 83
e 21 84
e 21 85
e 21 87
e 21 89
e 21 90
e 21 92
e 21 93
e 21 94
e 21 95
e 21 96
e 21 97
e 21 98
e 21 100
e 22 24
e 22 26
e 22 32
e 22 37
e 22 38
e 22 42
e 22 43
e 22 44
e 22 46
e 22 50
e 22 52
e 22 53
e 22 54
e 22 55
e 22 56
e 22 57
e 22 58
e 22 59
e 22 60
e 22 61
e 22 62
e 22 63
e 22 64
e 22 65
e 22 66
e 22 67
e 22 69
e 22 70
e 22 71
e 22 72
e 22 73
e 22 74
e 22 75
e 22 76
e 22 78
e 22 79
e 22 80
e 22 81
e 22 82
e 22 84
e 22 85
e 22 86
e 22 87
e 22 88
e 22 89
e 22 90
e 22 91
e 22 93
e 22 95
e 22 96
e 22 97
e 22 98
e 22 99
e 22 100
e 23 27
e 23 30
e 23 34
e 23 35
e 23 37
e 23 38
e 23 40
e 23 41
e 23 44
e 23 45
e 23 48
e 23 49
e 23 50
e 23 51
e 23 52
e 23 53
e 23 54
e 23 55
e 23 56
e 23 57
e 23 58
e 23 59
e 23 60
e 23 61
e 23 62
e 23 63
e 23 64
e 23 65
e 23 66
e 23 67
e 23 69
e 23 70
e 23 71
e 23 72
e 23 73
e 23 74
e 23 75
e 23 76
e 23 77
e 23 78
e 23 79
e 23 82
e 23 83
e 23 84
e 23 85
e 23 86
e 23 87
e 23 88
e 23 89
e 23 90
e 23 91
e 23 92
e 23 93
e 23 94
e 23 95
e 23 97
e 23 98
e 23 99
e 23 100
e 24 26
e 24 31
e 24 32
e 24 33
e 24 39
e 24 42
e 24 49
e 24 50
e 24 52
e 24 53
e 24 54
e 24 55
e 24 56
e 24 57
e 24 59
e 24 61
e 24 62
e 24 63
e 24 66
e 24 67
e 24 70
e 24 71
e 24 72
e 24 73
e 24 74
e 24 75
e 24 76
e 24 77
e 24 78
e 24 79
e 24 80
e 24 81
e 24 82
e 24 83
e 24 84
e 24 85
e 24 86
e 24 87
e 24 88
e 24 89
e 24 91
e 24 92
e 24 94
e 24 95
e 24 96
e 24 98
e 24 99
e 25 29
e 25 30
e 25 31
e 25 34
e 25 35
e 25 37
e 25 45
e 25 52
e 25 53
e 25 54
e 25 55
e 25 56
e 25 57
e 25 58
e 25 59
e 25 60
e 25 62
e 25 63
e 25 64
e 25 65
e 25 66
e 25 67
e 25 68
e 25 69
e 25 70
e 25 71
e 25 72
e 25 73
e 25 74
e 25 76
e 25 77
e 25 78
e 25 79
e 25 80
e 25 81
e 25 82
e 25 83
e 25 84
e 25 86
e 25 88
e 25 89
e 25 91
e 25 92
e 25 93
e 25 94
e 25 95
e 25 96
e 25 99
e 25 100
e 26 28
e 26 29
e 26 30
e 26 34
e 26 37
e 26 38
e 26 39
e 26 40
e 26 41
e 26 45
e 26 46
e 26 47
e 26 52
e 26 54
e 26 55
e 26 56
e 26 57
e 26 58
e 26 59
e 26 60
e 26 61
e 26 63
e 26 67
e 26 69
e 26 71
e 26 72
e 26 74
e 26 75
e 26 76
e 26 77
e 26 78
e 26 79
e 26 81
e 26 82
e 26 83
e 26 84
e 26 86
e 26 87
e 26 88
e 26 89
e 26 90
e 26 91
e 26 93
e 26 95
e 26 96
e 26 97
e 26 99
e 26 100
e 27 28
e 27 34
e 27 36
e 27 41
e 27 43
e 27 46
e 27 47
e 27 53
e 27 54
e 27 55
e 27 56
e 27 57
e 27 58
e 27 59
e 27 60
e 27 61
e 27 62
e 27 64
e 27 65
e 27 66
e 27 67
e 27 68
e 27 69
e 27 70
e 27 72
e 27 73
e 27 74
e 27 75
e 27 77
e 27 78
e 27 79
e 27 80
e 27 81
e 27 82
e 27 83
e 27 84
e 27 85
e 27 87
e 27 88
e 27 89
e 27 90
e 27 91
e 27 92
e 27 93
e 27 94
e 27 95
e 27 96
e 27 97
e 27 98
e 27 99
e 27 100
e 28 31
e 28 34
e 28 35
e 28 36
e 28 37
e 28 43
e 28 45
e 28 48
e 28 50
e 28 51
e 28 52
e 28 53
e 28 55
e 28 56
e 28 57
e 28 58
e 28 59
e 28 60
e 28 61
e 28 62
e 28 63
e 28 64
e 28 65
e 28 66
e 28 67
e 28 68
e 28 70
e 28 71
e 28 73
e 28 74
e 28 75
e 28 76
e 28 77
e 28 78
e 28 79
e 28 80
e 28 81
e 28 82
e 28 83
e 28 85
e 28 86
e 28 87
e 28 88
e 28 92
e 28 93
e 28 94
e 28 96
e 28 97
e 28 98
e 28 99
e 29 33
e 29 34
e 29 35
e 29 37
e 29 39
e 29 41
e 29 43
e 29 44
e 29 45
e 29 46
e 29 47
e 29 50
e 29 51
e 29 52
e 29 53
e 29 54
e 29 55
e 29 56
e 29 57
e 29 59
e 29 60
e 29 61
e 29 62
e 29 63
e 29 64
e 29 66
e 29 67
e 29 68
e 29 70
e 29 71
e 29 72
e 29 73
e 29 74
e 29 75
e 29 76
e 29 78
e 29 81
e 29 83
e 29 84
e 29 85
e 29 86
e 29 88
e 29 89
e 29 90
e 29 91
e 29 93
e 29 94
e 29 97
e 29 98
e 29 100
e 30 35
e 30 37
e 30 41
e 30 43
e 30 45
e 30 46
e 30 52
e 30 53
e 30 54
e 30 55
e 30 56
e 30 57
e 30 58
e 30 59
e 30 61
e 30 62
e 30 63
e 30 64
e 30 65
e 30 66
e 30 67
e 30 68
e 30 69
e 30 70
e 30 71
e 30 72
e 30 74
e 30 75
e 30 77
e 30 79
e 30 81
e 30 83
e 30 85
e 30 86
e 30 87
e 30 88
e 30 89
e 30 92
e 30 93
e 30 94
e 30 95
e 30 96
e 30 97
e 30 98
e 30 99
e 30 100
e 31 32
e 31 39
e 31 41
e 31 43
e 31 44
e 31 47
e 31 50
e 31 52
e 31 53
e 31 55
e 31 56
e 31 57
e 31 58
e 31 61
e 31 62
e 31 63
e 31 64
e 31 65
e 31 66
e 31 67
e 31 68
e 31 69
e 31 70
e 31 71
e 31 72
e 31 73
e 31 75
e 31 76
e 31 77
e 31 79
e 31 80
e 31 81
e 31 83
e 31 84
e 31 85
e 31 86
e 31 87
e 31 88
e 31 89
e 31 90
e 31 91
e 31 92
e 31 94
e 31 96
e 31 97
e 31 98
e 31 99
e 31 100
e 32 34
e 32 36
e 32 39
e 32 41
e 32 42
e 32 43
e 32 45
e 32 46
e 32 51
e 32 52
e 32 53
e 32 54
e 32 55
e 32 57
e 32 58
e 32 60
e 32 61
e 32 63
e 32 65
e 32 66
e 32 67
e 32 68
e 32 70
e 32 71
e 32 72
e 32 73
e 32 74
e 32 75
e 32 78
e 32 79
e 32 80
e 32 81
e 32 82
e 32 83
e 32 84
e 32 86
e 32 87
e 32 88
e 32 90
e 32 91
e 32 92
e 32 93
e 32 94
e 32 95
e 32 96
e 32 97
e 32 98
e 32 99
e 32 100
e 33 34
e 33 37
e 33 41
e 33 42
e 33 48
e 33 50
e 33 52
e 33 53
e 33 54
e 33 55
e 33 56
e 33 57
e 33 58
e 33 59
e 33 60
e 33 63
e 33 64
e 33 65
e 33 66
e 33 67
e 33 69
e 33 70
e 33 71
e 33 72
e 33 73
e 33 74
e 33 76
e 33 78
e 33 79
e 33 82
e 33 84
e 33 85
e 33 86
e 33 87
e 33 89
e 33 90
e 33 91
e 33 93
e 33 94
e 33 95
e 33 96
e 33 97
e 33 98
e 33 99
e 34 36
e 34 37
e 34 40
e 34 42
e 34 44
e 34 46
e 34 52
e 34 53
e 34 54
e 34 55
e 34 56
e 34 58
e 34 59
e 34 60
e 34 61
e 34 62
e 34 63
e 34 64
e 34 65
e 34 66
e 34 67
e 34 68
e 34 69
e 34 70
e 34 71
e 34 74
e 34 75
e 34 76
e 34 77
e 34 78
e 34 79
e 34 80
e 34 81
e 34 83
e 34 84
e 34 85
e 34 86
e 34 87
e 34 89
e 34 91
e 34 93
e 34 95
e 34 97
e 34 98
e 34 100
e 35 40
e 35 43
e 35 44
e 35 45
e 35 46
e 35 48
e 35 49
e 35 52
e 35 53
e 35 54
e 35 55
e 35 57
e 35 58
e 35 59
e 35 60
e 35 61
e 35 62
e 35 63
e 35 64
e 35 65
e 35 67
e 35 69
e 35 70
e 35 71
e 35 72
e 35 73
e 35 74
e 35 75
e 35 76
e 35 77
e 35 78
e 35 79
e 35 80
e 35 81
e 35 82
e 35 83
e 35 84
e 35 85
e 35 86
e 35 87
e 35 88
e 35 89
e 35 90
e 35 91
e 35 93
e 35 94
e 35 95
e 35 97
e 35 98
e 35 99
e 35 100
e 36 37
e 36 38
e 36 39
e 36 40
e 36 41
e 36 42
e 36 43
e 36 47
e 36 49
e 36 50
e 36 57
e 36 69
e 37 39
e 37 40
e 37 41
e 37 43
e 37 45
e 37 46
e 37 50
e 37 60
e 37 69
e 37 73
e 37 79
e 37 83
e 38 39
e 38 41
e 38 44
e 38 48
e 38 49
e 38 51
e 39 40
e 39 43
e 39 46
e 39 48
e 39 49
e 39 50
e 40 46
e 40 48
e 40 49
e 40 50
e 40 63
e 41 46
e 41 48
e 41 49
e 41 51
e 42 46
e 43 46
e 43 47
e 43 52
e 44 45
e 44 49
e 44 55
e 44 92
e 45 46
e 45 47
e 45 50
e 47 49
e 47 50
e 47 51
e 47 52
e 47 79
e 47 81
e 47 100
e 48 52
e 49 63
e 49 82
e 50 51
e 50 70
e 52 53
e 52 58
e 52 63
e 52 68
e 52 69
e 52 73
e 52 77
e 52 78
e 52 79
e 52 80
e 52 81
e 52 89
e 52 94
e 52 98
e 52 99
e 52 100
e 53 54
e 53 58
e 53 59
e 53 64
e 53 68
e 53 69
e 53 70
e 53 72
e 53 73
e 53 79
e 53 89
e 53 91
e 53 94
e 54 55
e 54 57
e 54 60
e 54 62
e 54 64
e 54 67
e 54 69
e 54 73
e 54 76
e 54 79
e 54 82
e 54 85
e 54 86
e 54 89
e 54 90
e 54 92
e 54 94
e 54 99
e 55 58
e 55 59
e 55 60
e 55 65
e 55 68
e 55 71
e 55 79
e 55 81
e 55 84
e 55 85
e 55 87
e 55 88
e 55 92
e 55 93
e 55 95
e 55 96
e 55 99
e 56 57
e 56 59
e 56 60
e 56 61
e 56 63
e 56 65
e 56 67
e 56 68
e 56 69
e 56 75
e 56 81
e 56 82
e 56 83
e 56 86
e 56 88
e 56 95
e 56 96
e 56 98
e 56 100
e 57 58
e 57 59
e 57 60
e 57 61
e 57 72
e 57 73
e 57 74
e 57 75
e 57 76
e 57 77
e 57 81
e 57 82
e 57 84
e 57 85
e 57 86
e 57 88
e 57 89
e 57 91
e 57 92
e 57 96
e 58 64
e 58 65
e 58 67
e 58 73
e 58 75
e 58 76
e 58 77
e 58 78
e 58 79
e 58 83
e 58 84
e 58 88
e 59 60
e 59 64
e 59 71
e 59 72
e 59 73
e 59 76
e 59 79
e 59 81
e 59 92
e 59 94
e 59 97
e 59 99
e 59 100
e 60 61
e 60 63
e 60 65
e 60 66
e 60 68
e 60 73
e 60 75
e 60 78
e 60 79
e 60 82
e 60 83
e 60 84
e 60 90
e 60 91
e 60 94
e 61 63
e 61 69
e 61 71
e 61 73
e 61 74
e 61 82
e 61 83
e 61 87
e 61 88
e 61 90
e 61 92
e 61 94
e 61 100
e 62 63
e 62 67
e 62 71
e 62 76
e 62 78
e 62 81
e 62 90
e 62 96
e 62 98
e 62 99
e 62 100
e 63 67
e 63 69
e 63 71
e 63 72
e 63 74
e 63 75
e 63 76
e 63 78
e 63 81
e 63 82
e 63 84
e 63 85
e 63 88
e 63 90
e 63 91
e 63 96
e 63 97
e 64 65
e 64 67
e 64 68
e 64 69
e 64 70
e 64 76
e 64 78
e 64 80
e 64 81
e 64 82
e 64 87
e 64 92
e 64 94
e 64 96
e 64 97
e 64 98
e 64 99
e 65 66
e 65 67
e 65 69
e 65 70
e 65 75
e 65 76
e 65 78
e 65 83
e 65 87
e 65 89
e 65 90
e 65 94
e 65 96
e 65 98
e 66 67
e 66 68
e 66 71
e 66 73
e 66 74
e 66 75
e 66 79
e 66 80
e 66 81
e 66 84
e 66 86
e 66 88
e 66 89
e 66 92
e 66 93
e 66 99
e 67 68
e 67 69
e 67 73
e 67 79
e 67 80
e 67 89
e 67 90
e 67 100
e 68 73
e 68 75
e 68 76
e 68 84
e 68 85
e 68 86
e 68 89
e 68 94
e 68 97
e 68 100
e 69 70
e 69 75
e 69 76
e 69 77
e 69 78
e 69 80
e 69 81
e 69 83
e 69 85
e 69 86
e 69 89
e 69 94
e 69 95
e 69 97
e 70 72
e 70 76
e 70 83
e 70 85
e 70 89
e 70 93
e 70 95
e 70 99
e 70 100
e 71 72
e 71 77
e 71 79
e 71 81
e 71 86
e 71 87
e 71 90
e 71 97
e 71 98
e 71 99
e 72 78
e 72 81
e 72 83
e 72 85
e 72 90
e 72 91
e 72 92
e 72 94
e 72 97
e 72 98
e 72 100
e 73 75
e 73 76
e 73 83
e 73 84
e 73 85
e 73 86
e 73 87
e 73 89
e 73 90
e 73 95
e 73 98
e 73 99
e 73 100
e 74 75
e 74 79
e 74 81
e 74 84
e 74 91
e 74 94
e 74 95
e 74 96
e 74 100
e 75 76
e 75 77
e 75 78
e 75 79
e 75 93
e 75 96
e 75 99
e 75 100
e 76 77
e 76 78
e 76 80
e 76 82
e 76 86
e 76 87
e 76 88
e 76 89
e 76 91
e 76 92
e 76 95
e 76 99
e 77 83
e 77 84
e 77 85
e 77 90
e 77 91
e 77 93
e 77 95
e 77 98
e 77 99
e 77 100
e 78 79
e 78 82
e 78 84
e 78 92
e 78 94
e 78 95
e 78 96
e 79 82
e 79 85
e 79 86
e 79 87
e 79 88
e 79 89
e 79 90
e 79 92
e 79 93
e 79 95
e 79 96
e 79 97
e 79 99
e 80 82
e 80 85
e 80 88
e 80 89
e 80 94
e 81 84
e 81 89
e 81 90
e 81 92
e 81 93
e 81 96
e 81 99
e 81 100
e 82 83
e 82 85
e 82 87
e 82 89
e 82 90
e 82 94
e 82 97
e 82 98
e 82 100
e 83 84
e 83 85
e 83 86
e 83 88
e 83 89
e 83 92
e 83 95
e 83 97
e 84 85
e 84 86
e 84 88
e 84 90
e 84 92
e 84 100
e 85 88
e 85 89
e 85 95
e 85 97
e 85 99
e 86 88
e 86 96
e 86 98
e 86 99
e 86 100
e 87 90
e 87 96
e 87 97
e 87 99
e 87 100
e 88 90
e 88 93
e 88 96
e 88 97
e 89 91
e 89 93
e 89 94
e 89 96
e 89 97
e 90 92
e 90 97
e 90 100
e 91 96
e 91 97
e 92 94
e 92 97
e 92 98
e 92 100
e 93 98
e 93 100
e 94 96
e 94 97
e 94 98
e 94 100
e 95 96
e 95 98
e 97 98
e 97 100
