MATILDA_Graphs/g0003.sol
SET_INDEX
3017
7032
17256
17834
18623
18850
23218
37816
52665
56950
59159
61986
62963
EOF
